219
165
41
82
330
80
109
99
54
150
105
70
73
85
52
89
98
72
48
66
147
76
162
41
166
69
102
49
36
84
50
66
107
129
47
109
43
26
35
40
150
47
105
89
37
77
31
57
152
147
147
95
70
41
57
56
135
43
49
65
66
98
86
31
69
43
192
24
71
141
242
49
70
101
113
229
55
34
70
31
45
85
0
87
78
57
123
71
94
197
80
70
179
69
140
29
210
96
56
66
